c status 203 1469274501387
c status 51 1469274501390
s td 88 51 210
b 1 43 83 11 87 94 100 112 90 76 124 123 1 159
b 2 83 11 87 94 100 112 90 76 124 123 115 1 159
b 3 11 87 94 100 112 90 42 76 124 123 115 1 159
b 4 87 94 100 112 90 42 76 124 123 115 116 1 159
b 5 94 100 112 90 42 76 124 123 115 116 117 1 159
b 6 100 112 90 42 76 124 123 115 116 117 118 1 159
b 7 112 90 42 76 124 123 115 116 117 118 119 1 159
b 8 6 113 134 145 156 167 178 189 2 142 1 14 91 130 137 147 151 159
b 9 4 113 134 145 156 167 178 189 2 142 1 14 91 130 137 147 151 159
b 10 152 1 3 25 36 47 58 69 80 102 114 125 126 127 128 150 151 153 200
b 11 190 165 113 134 145 156 167 178 189 2 142 1 14 91 130 137 147 151 159
b 12 90 42 76 2 124 123 115 116 117 118 119 142 1 14 91 130 137 147 151 159
b 13 132 133 135 129 131 1 3 25 36 47 58 69 80 102 114 125 126 127 128 200
b 14 192 165 191 113 134 145 156 167 178 189 2 142 1 14 91 130 137 147 151 159
b 15 194 165 191 113 134 145 156 167 178 189 2 142 1 14 91 130 137 147 151 159
b 16 113 134 145 156 167 178 189 42 76 2 142 1 14 91 130 137 147 151 159
b 17 2 124 123 115 116 117 118 119 120 142 1 14 91 130 137 147 151 159
b 18 133 135 129 131 136 138 1 3 25 36 47 58 69 80 102 114 125 126 127 128 200
b 19 135 139 129 131 136 138 1 3 25 36 47 58 69 80 102 114 125 126 127 128 200
b 20 140 139 129 131 136 138 141 1 3 25 36 47 58 69 80 102 114 125 126 127 128 200
b 21 139 129 131 136 138 141 143 1 3 25 36 47 58 69 80 102 114 125 126 127 128 200
b 22 144 129 131 136 138 141 143 146 148 149 1 3 25 36 47 58 69 80 102 114 125 126 127 128 200
b 23 10 13 8 9 1 3 5 7 25 36 47 58 69 80 151 154 158 159 160 164 169 177 185 193 196 200 205
b 24 13 8 9 15 16 1 3 5 7 12 25 36 47 58 69 80 151 154 158 159 160 164 169 177 185 193 196 200 205
b 25 108 96 93 115 116 117 118 119 120 121 122 1 5 7 12 17 20 37 151 154 158 159 160 164 169 177 185 193 196 205
b 26 8 9 15 16 18 19 1 3 5 7 12 25 36 47 58 69 80 151 154 158 159 160 164 169 177 185 193 196 200 205
b 27 18 19 1 3 5 7 12 17 25 36 47 58 69 80 151 154 158 159 160 164 169 177 185 193 196 200 205
b 28 124 123 115 116 117 118 119 120 142 1 5 7 12 14 17 20 91 130 137 147 151 159 160 164 169 177 185 193 196 205
b 29 123 115 116 117 118 119 120 142 1 5 7 12 14 17 20 91 130 137 147 151 158 159 160 164 169 177 185 193 196 205
b 30 99 101 103 92 26 115 116 117 118 119 120 121 122 1 5 7 12 17 20 151 154 158 159 160 164 169 177 185 193 196 205
b 31 170 171 168 166 157 155 163 1 3 25 36 47 58 69 80 102 114 125 126 127 128 150 151 153 154 158 159 160 164 169 200
b 32 171 168 166 172 157 155 163 1 3 25 36 47 58 69 80 102 114 125 126 127 128 150 151 153 154 158 159 160 164 169 200
b 33 107 93 84 85 95 115 116 117 118 119 120 121 122 1 5 7 12 17 20 37 151 154 158 159 160 164 169 177 185 193 196 205
b 34 106 73 26 85 86 95 115 116 117 118 119 120 121 122 1 5 7 12 17 20 151 154 158 159 160 164 169 177 185 193 196 205
b 35 168 166 172 173 174 157 155 162 163 1 3 25 36 47 58 69 80 102 114 125 126 127 128 150 151 153 154 158 159 160 164 169 200
b 36 166 172 173 174 157 155 161 162 163 1 3 25 36 47 58 69 80 102 114 125 126 127 128 150 151 153 154 158 159 160 164 169 200
b 37 172 173 174 175 176 157 155 161 162 163 1 3 25 36 47 58 69 80 102 114 125 126 127 128 150 151 153 154 158 159 160 164 169 200
b 38 173 174 175 176 179 157 155 161 162 163 1 3 25 36 47 58 69 80 102 114 125 126 127 128 150 151 153 154 158 159 160 164 169 200
b 39 188 187 186 183 184 176 157 155 1 3 25 36 47 58 69 80 102 114 125 126 127 128 150 151 153 154 158 159 160 164 169 177 185 200
b 40 174 175 180 176 179 157 155 161 162 163 1 3 25 36 47 58 69 80 102 114 125 126 127 128 150 151 153 154 158 159 160 164 169 200
b 41 187 186 183 184 180 176 157 155 1 3 25 36 47 58 69 80 102 114 125 126 127 128 150 151 153 154 158 159 160 164 169 177 185 200
b 42 175 180 176 179 181 157 155 161 162 163 1 3 25 36 47 58 69 80 102 114 125 126 127 128 150 151 153 154 158 159 160 164 169 200
b 43 186 183 184 182 180 176 157 155 1 3 25 36 47 58 69 80 102 114 125 126 127 128 150 151 153 154 158 159 160 164 169 177 185 200
b 44 183 184 182 180 176 181 157 155 1 3 25 36 47 58 69 80 102 114 125 126 127 128 150 151 153 154 158 159 160 164 169 177 185 200
b 45 182 180 176 179 181 157 155 1 3 25 36 47 58 69 80 102 114 125 126 127 128 150 151 153 154 158 159 160 164 169 177 185 200
b 46 110 84 89 60 68 97 85 95 115 116 117 118 119 120 121 122 1 5 7 12 17 20 37 151 154 158 159 160 164 169 177 185 193 196 205
b 47 109 98 93 84 89 68 85 95 115 116 117 118 119 120 121 122 1 5 7 12 17 20 37 151 154 158 159 160 164 169 177 185 193 196 205
b 48 180 176 179 181 157 155 161 162 163 1 3 25 36 47 58 69 80 102 114 125 126 127 128 150 151 153 154 158 159 160 164 169 177 185 200
b 49 104 73 26 88 53 64 85 86 95 115 116 117 118 119 120 121 122 1 5 7 12 17 20 151 154 158 159 160 164 169 177 185 193 196 205
b 50 195 197 198 157 155 161 162 163 1 3 25 36 47 58 69 80 102 114 125 126 127 128 150 151 153 154 158 159 160 164 169 177 185 193 200
b 51 92 105 73 26 88 53 64 85 86 95 115 116 117 118 119 120 121 122 1 5 7 12 17 20 151 154 158 159 160 164 169 177 185 193 196 205
b 52 111 93 84 89 60 68 97 85 95 115 116 117 118 119 120 121 122 1 5 7 12 17 20 37 151 154 158 159 160 164 169 177 185 193 196 205
b 53 197 198 199 157 155 161 162 163 1 3 25 36 47 58 69 80 102 114 125 126 127 128 150 151 153 154 158 159 160 164 169 177 185 193 196 200
b 54 93 84 89 60 68 97 85 86 95 115 116 117 118 119 120 121 122 1 5 7 12 17 20 37 151 154 158 159 160 164 169 177 185 193 196 205
b 55 198 199 201 157 155 161 162 163 1 3 25 36 47 58 69 80 102 114 125 126 127 128 150 151 153 154 158 159 160 164 169 177 185 193 196 200
b 56 202 199 201 203 157 155 161 162 163 1 3 25 36 47 58 69 80 102 114 125 126 127 128 150 151 153 154 158 159 160 164 169 177 185 193 196 200
b 57 199 201 203 204 157 155 161 162 163 1 3 25 36 47 58 69 80 102 114 125 126 127 128 150 151 153 154 158 159 160 164 169 177 185 193 196 200
b 58 201 206 203 204 157 155 161 162 163 1 3 25 36 47 58 69 80 102 114 125 126 127 128 150 151 153 154 158 159 160 164 169 177 185 193 196 200
b 59 23 1 3 5 7 12 17 20 21 22 24 25 36 47 58 69 80 102 114 125 126 127 128 150 151 153 154 158 159 160 164 169 177 185 193 196 200 205
b 60 210 209 203 208 157 155 161 162 163 1 3 25 36 47 58 69 80 102 114 125 126 127 128 150 151 153 154 158 159 160 164 169 177 185 193 196 200 205
b 61 206 207 203 204 157 155 161 162 163 1 3 25 36 47 58 69 80 102 114 125 126 127 128 150 151 153 154 158 159 160 164 169 177 185 193 196 200 205
b 62 209 203 204 208 157 155 161 162 163 1 3 25 36 47 58 69 80 102 114 125 126 127 128 150 151 153 154 158 159 160 164 169 177 185 193 196 200 205
b 63 207 203 204 208 157 155 161 162 163 1 3 25 36 47 58 69 80 102 114 125 126 127 128 150 151 153 154 158 159 160 164 169 177 185 193 196 200 205
b 64 70 67 71 1 3 5 7 12 17 20 25 36 37 47 58 69 80 102 114 125 126 127 128 150 151 153 154 158 159 160 164 169 177 185 193 196 200 205
b 65 73 26 88 53 64 85 86 95 115 116 117 118 119 120 121 122 81 77 78 79 82 1 5 7 12 17 20 151 154 158 159 160 164 169 177 185 193 196 205
b 66 89 60 68 97 85 86 95 115 116 117 118 119 120 121 122 142 1 5 7 12 14 17 20 37 91 130 137 147 151 154 158 159 160 164 169 177 185 193 196 205
b 67 26 88 53 64 85 86 95 115 116 117 118 119 120 121 122 81 77 78 79 82 1 5 7 12 17 20 130 137 151 154 158 159 160 164 169 177 185 193 196 205
b 68 157 155 161 162 163 142 1 3 14 25 36 47 58 69 80 91 102 114 125 126 127 128 130 137 147 150 151 153 154 158 159 160 164 169 177 185 193 196 200 205
b 69 67 71 72 74 75 1 3 5 7 12 17 20 25 36 37 47 58 69 80 102 114 125 126 127 128 150 151 153 154 158 159 160 164 169 177 185 193 196 200 205
b 70 27 1 3 5 7 12 17 20 21 22 24 25 28 29 30 36 47 58 69 80 102 114 125 126 127 128 150 151 153 154 158 159 160 164 169 177 185 193 196 200 205
b 71 88 53 64 85 86 95 115 116 117 118 119 120 121 122 81 77 78 79 82 142 1 5 7 12 14 17 20 91 130 137 147 151 154 158 159 160 164 169 177 185 193 196 205
b 72 85 86 95 115 116 117 118 119 120 121 122 81 77 78 79 82 142 1 5 7 12 14 17 20 37 91 130 137 147 151 154 158 159 160 164 169 177 185 193 196 205
b 73 55 56 54 1 3 5 7 12 17 20 21 22 24 25 28 29 30 31 36 37 47 58 69 80 102 114 125 126 127 128 150 151 153 154 158 159 160 164 169 177 185 193 196 200 205
b 74 56 57 54 1 3 5 7 12 17 20 21 22 24 25 28 29 30 31 36 37 47 58 69 80 102 114 125 126 127 128 150 151 153 154 158 159 160 164 169 177 185 193 196 200 205
b 75 57 54 59 1 3 5 7 12 17 20 21 22 24 25 28 29 30 31 36 37 47 58 69 80 102 114 125 126 127 128 150 151 153 154 158 159 160 164 169 177 185 193 196 200 205
b 76 38 39 1 3 5 7 12 17 20 21 22 24 25 28 29 30 31 32 34 36 37 47 58 69 80 102 114 125 126 127 128 150 151 153 154 158 159 160 164 169 177 185 193 196 200 205
b 77 41 40 39 1 3 5 7 12 17 20 21 22 24 25 28 29 30 31 32 36 37 47 58 69 80 102 114 125 126 127 128 150 151 153 154 158 159 160 164 169 177 185 193 196 200 205
b 78 81 77 78 79 82 142 1 3 5 7 12 14 17 20 25 36 37 47 58 69 80 91 102 114 125 126 127 128 130 137 147 150 151 153 154 158 159 160 164 169 177 185 193 196 200 205
b 79 40 39 1 3 5 7 12 17 20 21 22 24 25 28 29 30 31 32 34 36 37 47 58 69 80 102 114 125 126 127 128 150 151 153 154 158 159 160 164 169 177 185 193 196 200 205
b 80 62 63 54 59 61 1 3 5 7 12 17 20 21 22 24 25 28 29 30 31 36 37 47 58 69 80 102 114 125 126 127 128 150 151 153 154 158 159 160 164 169 177 185 193 196 200 205
b 81 66 54 59 61 65 1 3 5 7 12 17 20 21 22 24 25 28 29 30 31 36 37 47 58 69 80 102 114 125 126 127 128 150 151 153 154 158 159 160 164 169 177 185 193 196 200 205
b 82 63 54 59 61 65 1 3 5 7 12 17 20 21 22 24 25 28 29 30 31 36 37 47 58 69 80 102 114 125 126 127 128 150 151 153 154 158 159 160 164 169 177 185 193 196 200 205
b 83 44 33 45 1 3 5 7 12 17 20 21 22 24 25 28 29 30 31 32 34 35 36 37 47 58 69 80 102 114 125 126 127 128 150 151 153 154 158 159 160 164 169 177 185 193 196 200 205
b 84 46 33 45 48 1 3 5 7 12 17 20 21 22 24 25 28 29 30 31 32 34 35 36 37 47 58 69 80 102 114 125 126 127 128 150 151 153 154 158 159 160 164 169 177 185 193 196 200 205
b 85 33 49 45 48 1 3 5 7 12 17 20 21 22 24 25 28 29 30 31 32 34 35 36 37 47 58 69 80 102 114 125 126 127 128 150 151 153 154 158 159 160 164 169 177 185 193 196 200 205
b 86 52 45 48 50 51 1 3 5 7 12 17 20 21 22 24 25 28 29 30 31 32 34 35 36 37 47 58 69 80 102 114 125 126 127 128 150 151 153 154 158 159 160 164 169 177 185 193 196 200 205
b 87 49 45 48 50 51 1 3 5 7 12 17 20 21 22 24 25 28 29 30 31 32 34 35 36 37 47 58 69 80 102 114 125 126 127 128 150 151 153 154 158 159 160 164 169 177 185 193 196 200 205
b 88 142 1 3 5 7 12 14 17 20 21 22 24 25 28 29 30 31 32 34 35 36 37 47 58 69 80 91 102 114 125 126 127 128 130 137 147 150 151 153 154 158 159 160 164 169 177 185 193 196 200 205
1 2
2 3
3 4
4 5
5 6
6 7
7 12
12 17
17 28
28 29
29 66
66 72
72 71
71 67
67 65
66 54
54 52
54 46
65 51
65 49
54 47
54 33
51 34
72 78
78 88
88 83
83 84
84 85
85 87
87 86
88 79
79 76
79 77
88 74
74 73
74 75
75 80
80 82
82 81
88 70
88 59
78 69
69 64
88 68
68 63
63 61
63 62
62 60
61 58
58 57
57 56
57 55
55 53
53 50
68 48
48 42
42 40
40 38
38 37
48 45
37 36
45 44
44 43
43 41
41 39
36 35
35 32
32 31
54 25
51 30
78 27
27 26
26 24
24 23
78 10
59 20
20 21
21 22
20 19
19 18
18 13
12 16
16 8
16 9
16 11
11 14
14 15
